

0	0	0
-57	-5	1
-82	28	23
-61	-9	23
-19	15	5
-73	-15	7
-24	-7	18
-2	16	12
-52	-19	20
-67	23	19
-44	54	19
-46	64	16
-61	72	2
-23	35	26
-11	2	13
-25	63	19
1	16	17
-32	17	14
-20	12	8
-40	17	10
-39	-5	5
-65	32	19
-67	61	12
-85	60	9
8	6	18
-4	50	4
-45	37	20
14	55	8
-85	35	3
10	-15	18
-29	60	26
-39	16	21
-18	67	21
-70	14	8
-35	16	19
-3	52	66
-2	-20	21
